TW_7_6_0.8_0.0_0.8
Wed Nov 16 22:15:15 CET 2022
p tw 12 39
1 2
2 3
4 5
5 6
1 4
2 5
3 6
1 7
1 9
1 10
1 11
1 12
3 7
3 9
3 10
3 11
3 12
4 8
4 9
4 10
4 11
4 12
6 8
6 9
6 10
6 11
6 12
7 8
7 9
7 10
8 9
8 10
8 11
8 12
9 11
9 12
10 11
10 12
11 12
p tw 14 42
1 2
2 13
13 3
4 5
5 14
14 6
13 14
1 4
2 5
3 6
1 7
1 9
1 10
1 11
1 12
3 7
3 9
3 10
3 11
3 12
4 8
4 9
4 10
4 11
4 12
6 8
6 9
6 10
6 11
6 12
7 8
7 9
7 10
8 9
8 10
8 11
8 12
9 11
9 12
10 11
10 12
11 12
